OBJSENSE
MIN
ROWS
 N  OBJ
 L  RES1
 L  RES2
 E  BALANCE
COLUMNS
    VOL1      OBJ                4.5
    VOL1      RES1               1.0
    VOL1      BALANCE            2.5
    VOL2      OBJ                2.5
    VOL2      RES2               1.5
    VOL2      BALANCE            2.0
    VOL3      OBJ                4.0
    VOL3      RES1               1.0
    VOL3      RES2               0.5
    VOL3      BALANCE            3.0
    VOL4      OBJ                4.0
    VOL4      RES1               1.5
    VOL4      RES2               0.5
    VOL4      BALANCE            2.0
RHS
    RHS1      RES1              40.0
    RHS1      RES2              30.0
    RHS1      BALANCE           95.0
BOUNDS
 LO BOUND1    VOL3             -10.0
 UP BOUND1    VOL3              20.0
 UP BOUND1    VOL4              25.0
ENDATA
